3 5
114 124 143 
0 59 52 70 71 89 89 17 74 5 64 6 47 1
1 5 9 44 43 78 86 88 36 93 14 86 22 2
2 60 55 35 25 7 4 3 7 16 11 3 31 2
3 49 52 106 98 36 45 75 40 58 97 6 33 3
4 56 61 2 11 56 62 45 55 23 89 25 99 2
